output_file = "9-1-B-80-1.80-64.csv";

n_days = 80;
n_shelves = 9;
n_crops = 1;

crop_shelf_compatible = [
    [1, 1, 1, 1, 1, 1, 1, 1, 1]
];

crop_growth_days = [15];

n_configurations = 2;

crop_growth_day_config = [
    [1, 1, 1, 2, 2, 2, 2, 2, 2, 2, 2, 2, 2, 2, 2]
];

capacity = [
    [12, 12],
[12, 12],
[12, 12],
[12, 12],
[12, 12],
[12, 12],
[12, 12],
[12, 12],
[12, 12]
];

demand = [
    [0, 0, 0, 0, 0, 0, 0, 0, 0, 0, 0, 0, 0, 0, 0, 9, 0, 0, 0, 0, 5, 0, 0, 12, 18, 23, 0, 5, 0, 0, 10, 0, 0, 0, 0, 0, 0, 0, 12, 16, 9, 3, 0, 0, 10, 0, 0, 0, 3, 10, 0, 0, 18, 0, 0, 0, 0, 0, 0, 0, 0, 18, 0, 7, 0, 0, 0, 0, 0, 5, 12, 0, 0, 0, 0, 0, 0, 10, 5, 0]
];
